NAME : local_6
TYPE : ATSP
DIMENSION : 13
EDGE_WEIGHT_TYPE : EXPLICIT
EDGE_WEIGHT_FORMAT : FULL_MATRIX
EDGE_WEIGHT_SECTION
0 777 903 745 818 570 812 810 571 10000000 10000000 667 10000000 
0 0 10000000 270 271 10000000 10000000 145 313 10000000 10000000 868 710 
0 10000000 0 10000000 10000000 578 360 10000000 10000000 10000000 10000000 646 10000000 
0 270 10000000 0 520 10000000 10000000 368 465 10000000 10000000 668 818 
0 271 10000000 520 0 10000000 10000000 192 302 10000000 10000000 10000000 663 
0 10000000 578 10000000 10000000 0 310 10000000 1068 10000000 10000000 802 10000000 
0 10000000 360 10000000 10000000 310 0 10000000 10000000 10000000 10000000 839 10000000 
0 145 10000000 368 192 10000000 10000000 0 366 10000000 10000000 960 584 
0 313 10000000 465 302 1200 10000000 366 0 10000000 10000000 905 929 
0 10000000 10000000 10000000 10000000 10000000 10000000 10000000 10000000 0 248 10000000 991 
0 10000000 10000000 10000000 10000000 10000000 10000000 10000000 10000000 248 0 956 10000000 
0 868 646 668 10000000 802 839 924 905 10000000 956 0 10000000 
0 10000000 10000000 10000000 10000000 10000000 10000000 10000000 10000000 10000000 10000000 10000000 0 
EOF